Problem:    
Rows:       248
Columns:    89 (72 integer, 72 binary)
Non-zeros:  820
Status:     INTEGER OPTIMAL
Objective:  value = 80.574298 (MINimum)

   No.   Row name        Activity     Lower bound   Upper bound
------ ------------    ------------- ------------- -------------
     1 r.5                   80.5743             0               
     2 r.6                  -1939.62      -1982.62               
     3 r.7                   2080.57             0               
     4 r.8                  -1979.07      -1984.84               
     5 r.9                   2080.57             0               
     6 r.10                 -1977.39      -1980.44               
     7 r.11                  80.5743             0               
     8 r.12                 -1920.42      -1984.83               
     9 r.13                  80.5743             0               
    10 r.14                   3.0423      -1970.17               
    11 r.15                  2080.57             0               
    12 r.16                 -1938.58      -1979.19               
    13 r.17                  80.5743             0               
    14 r.18                   3.0423      -1983.97               
    15 r.19                  2080.57             0               
    16 r.20                 -1962.39      -1986.32               
    17 r.21                  2080.57             0               
    18 r.22                    -1960      -1985.61               
    19 r.23                  80.5743             0               
    20 r.24                  5.77348      -1988.64               
    21 r.25                  2080.57             0               
    22 r.26                 -1919.43      -1962.43               
    23 r.27                  80.5743             0               
    24 r.28                  23.9286      -1983.56               
    25 r.29                  80.5743             0               
    26 r.30                  40.0003      -1962.35               
    27 r.31                  2080.57             0               
    28 r.32                 -1919.43      -1983.84               
    29 r.33                  2080.57             0               
    30 r.34                 -1996.96      -1996.96               
    31 r.35                  80.5743             0               
    32 r.36                   3.0423      -1968.96               
    33 r.37                        1             1             = 
    34 r.38                        1             1             = 
    35 r.39                        1             1             = 
    36 r.40                        1             1             = 
    37 r.41                        1             1             = 
    38 r.42                        1             1             = 
    39 r.43                        1             1             = 
    40 r.44                        1             1             = 
    41 r.45                  1965.22       19.5638               
    42 r.46                 -1968.22      -1982.62               
    43 r.47                  55.6537        15.166               
    44 r.48                 -52.6537      -1984.84               
    45 r.49                  1945.66       29.8314               
    46 r.50                 -1945.66      -1982.62               
    47 r.51                  37.4877       20.8055               
    48 r.52                 -37.4877      -1984.84               
    49 r.53                  1945.66       16.0275               
    50 r.54                 -1945.66      -1982.62               
    51 r.55                  13.6822       13.6822               
    52 r.56                 -13.6822      -1984.84               
    53 r.57                  1982.62       14.3942               
    54 r.58                 -1982.62      -1982.62               
    55 r.59                  1981.84       11.3643               
    56 r.60                 -1981.84      -1984.84               
    57 r.61                  23.1912      -1959.43               
    58 r.62                  1966.55      -1980.56               
    59 r.63                 -1943.35      -1959.43               
    60 r.64                        0      -1980.56               
    61 r.65                  1982.62       37.6507               
    62 r.66                 -1982.62      -1982.62               
    63 r.67                  56.6457        16.158               
    64 r.68                 -56.6457      -1984.84               
    65 r.69                 -1945.66      -1979.62               
    66 r.70                 -1979.11      -1981.84               
    67 r.71                 -1945.66      -1979.62               
    68 r.72                 -1979.11      -1981.84               
    69 r.73                  34.7769       17.3828               
    70 r.74                 -31.7769      -1980.44               
    71 r.75                  1944.35       15.1551               
    72 r.76                 -1947.35      -1984.83               
    73 r.77                  1977.44       29.8314               
    74 r.78                 -1977.44      -1980.44               
    75 r.79                  1984.83       20.8055               
    76 r.80                 -1984.83      -1984.83               
    77 r.81                  1977.44       16.0275               
    78 r.82                 -1977.44      -1980.44               
    79 r.83                  1961.03       13.6822               
    80 r.84                 -1961.03      -1984.83               
    81 r.85                  14.3942       14.3942               
    82 r.86                 -14.3942      -1980.44               
    83 r.87                  1929.19       11.3643               
    84 r.88                 -1929.19      -1984.83               
    85 r.89                  54.9682        37.574               
    86 r.90                 -54.9682      -1980.44               
    87 r.91                  1947.35       16.4442               
    88 r.92                 -1947.35      -1984.83               
    89 r.93                  14.3942      -1959.35               
    90 r.94                 -1945.03      -1980.84               
    91 r.95                  1963.42      -1959.35               
    92 r.96                  3.99198      -1980.84               
    93 r.97                 -1977.44      -1977.44               
    94 r.98                 -1926.46      -1981.83               
    95 r.99                 -1977.44      -1977.44               
    96 r.100                -1926.46      -1981.83               
    97 r.101                 57.3408       17.3828               
    98 r.102                -54.3408      -1970.17               
    99 r.103                 1959.51       15.1551               
   100 r.104                -1962.51      -1979.19               
   101 r.105                 19.5638       19.5638               
   102 r.106                -22.5638      -1970.17               
   103 r.107                  18.166        15.166               
   104 r.108                 -15.166      -1979.19               
   105 r.109                       0      -1967.17               
   106 r.110                -1941.63      -1976.19               
   107 r.111                -34.5685      -1967.17               
   108 r.112                -1976.19      -1976.19               
   109 r.113                  36.958       14.3942               
   110 r.114                 -36.958      -1970.17               
   111 r.115                 1944.36       11.3643               
   112 r.116                -1944.36      -1979.19               
   113 r.117                  77.532        37.574               
   114 r.118                 -77.532      -1970.17               
   115 r.119                 1962.51       16.4442               
   116 r.120                -1962.51      -1979.19               
   117 r.121                  36.958      -1959.35               
   118 r.122                -1922.47      -1980.84               
   119 r.123                 -21.416      -1959.35               
   120 r.124                -1980.84      -1980.84               
   121 r.125                       0      -1967.17               
   122 r.126                -1941.63      -1976.19               
   123 r.127                       0      -1967.17               
   124 r.128                -1941.63      -1976.19               
   125 r.129                 57.3408       17.3828               
   126 r.130                -54.3408      -1983.97               
   127 r.131                 1983.32       15.1551               
   128 r.132                -1986.32      -1986.32               
   129 r.133                 19.5638       19.5638               
   130 r.134                -22.5638      -1983.97               
   131 r.135                 41.9716        15.166               
   132 r.136                -38.9716      -1986.32               
   133 r.137                       0      -1967.17               
   134 r.138                -1941.63      -1976.19               
   135 r.139                -34.5685      -1967.17               
   136 r.140                -1976.19      -1976.19               
   137 r.141                  36.958       14.3942               
   138 r.142                 -36.958      -1983.97               
   139 r.143                 1968.16       11.3643               
   140 r.144                -1968.16      -1986.32               
   141 r.145                  77.532        37.574               
   142 r.146                 -77.532      -1983.97               
   143 r.147                 1986.32       16.4442               
   144 r.148                -1986.32      -1986.32               
   145 r.149                  36.958      -1959.35               
   146 r.150                -1922.47      -1980.84               
   147 r.151                 2.38953      -1959.35               
   148 r.152                -1957.04      -1980.84               
   149 r.153                       0      -1977.97               
   150 r.154                -1965.43      -1980.32               
   151 r.155                       0      -1977.97               
   152 r.156                -1965.43      -1980.32               
   153 r.157                 20.3828       17.3828               
   154 r.158                -17.3828      -1985.61               
   155 r.159                 15.1551       15.1551               
   156 r.160                -18.1551      -1988.64               
   157 r.161                 1982.61       19.5638               
   158 r.162                -1985.61      -1985.61               
   159 r.163                 73.8088        15.166               
   160 r.164                -70.8088      -1988.64               
   161 r.165                 1963.04       29.8314               
   162 r.166                -1963.04      -1985.61               
   163 r.167                 55.6428       20.8055               
   164 r.168                -55.6428      -1988.64               
   165 r.169                 1963.04       16.0275               
   166 r.170                -1963.04      -1985.61               
   167 r.171                 31.8373       13.6822               
   168 r.172                -31.8373      -1988.64               
   169 r.173                -1959.43      -1959.43               
   170 r.174                -16.0717      -1980.56               
   171 r.175                 -1925.2      -1959.43               
   172 r.176                 18.1551      -1980.56               
   173 r.177                       0      -1959.35               
   174 r.178                -1959.43      -1980.84               
   175 r.179                 34.2268      -1959.35               
   176 r.180                 -1925.2      -1980.84               
   177 r.181                -1963.04      -1979.61               
   178 r.182                 2.73118      -1982.64               
   179 r.183                -1963.04      -1979.61               
   180 r.184                 2.73118      -1982.64               
   181 r.185                 23.1912      -1959.43               
   182 r.186                 1966.55      -1980.56               
   183 r.187                -1943.35      -1959.43               
   184 r.188                       0      -1980.56               
   185 r.189                 1942.03       19.5638               
   186 r.190                -1945.03      -1962.43               
   187 r.191                 55.6537        15.166               
   188 r.192                -52.6537      -1983.56               
   189 r.193                 1922.47       29.8314               
   190 r.194                -1922.47      -1962.43               
   191 r.195                 37.4877       20.8055               
   192 r.196                -37.4877      -1983.56               
   193 r.197                 1922.47       16.0275               
   194 r.198                -1922.47      -1962.43               
   195 r.199                 13.6822       13.6822               
   196 r.200                -13.6822      -1983.56               
   197 r.201                -1959.43      -1959.43               
   198 r.202                -16.0717      -1980.56               
   199 r.203                 -1925.2      -1959.43               
   200 r.204                 18.1551      -1980.56               
   201 r.205                 1959.43       37.6507               
   202 r.206                -1959.43      -1962.43               
   203 r.207                 56.6457        16.158               
   204 r.208                -56.6457      -1983.56               
   205 r.209                 20.3828       17.3828               
   206 r.210                -17.3828      -1962.35               
   207 r.211                 1940.35       15.1551               
   208 r.212                -1943.35      -1983.84               
   209 r.213                 14.3942      -1959.35               
   210 r.214                -1945.03      -1980.84               
   211 r.215                 1963.42      -1959.35               
   212 r.216                 3.99198      -1980.84               
   213 r.217                  36.958      -1959.35               
   214 r.218                -1922.47      -1980.84               
   215 r.219                 -21.416      -1959.35               
   216 r.220                -1980.84      -1980.84               
   217 r.221                  36.958      -1959.35               
   218 r.222                -1922.47      -1980.84               
   219 r.223                 2.38953      -1959.35               
   220 r.224                -1957.04      -1980.84               
   221 r.225                       0      -1959.35               
   222 r.226                -1959.43      -1980.84               
   223 r.227                 34.2268      -1959.35               
   224 r.228                 -1925.2      -1980.84               
   225 r.229                  40.574        37.574               
   226 r.230                 -40.574      -1962.35               
   227 r.231                 1943.35       16.4442               
   228 r.232                -1943.35      -1983.84               
   229 r.233                -1945.66      -1979.62               
   230 r.234                -1979.11      -1981.84               
   231 r.235                -1945.66      -1979.62               
   232 r.236                -1979.11      -1981.84               
   233 r.237                -1977.44      -1977.44               
   234 r.238                -1926.46      -1981.83               
   235 r.239                -1977.44      -1977.44               
   236 r.240                -1926.46      -1981.83               
   237 r.241                       0      -1967.17               
   238 r.242                -1941.63      -1976.19               
   239 r.243                       0      -1967.17               
   240 r.244                -1941.63      -1976.19               
   241 r.245                       0      -1977.97               
   242 r.246                -1965.43      -1980.32               
   243 r.247                       0      -1977.97               
   244 r.248                -1965.43      -1980.32               
   245 r.249                -1963.04      -1979.61               
   246 r.250                 2.73118      -1982.64               
   247 r.251                -1963.04      -1979.61               
   248 r.252                 2.73118      -1982.64               

   No. Column name       Activity     Lower bound   Upper bound
------ ------------    ------------- ------------- -------------
     1 tt                    80.5743             0               
     2 s_1_1        *              0             0             1 
     3 t_1_1                 2023.19             0               
     4 s_1_6        *              1             0             1 
     5 s_2_1        *              1             0             1 
     6 t_2_1                 56.6457             0               
     7 s_2_6        *              0             0             1 
     8 s_1_2        *              1             0             1 
     9 t_1_2                 54.9682             0               
    10 s_1_7        *              0             0             1 
    11 s_2_2        *              0             0             1 
    12 t_2_2                 2003.99             0               
    13 s_2_7        *              1             0             1 
    14 s_1_3        *              0             0             1 
    15 t_1_3                  77.532             0               
    16 s_2_3        *              1             0             1 
    17 t_2_3                  19.158             0               
    18 s_1_4        *              0             0             1 
    19 t_1_4                  77.532             0               
    20 s_2_4        *              1             0             1 
    21 t_2_4                 42.9635             0               
    22 s_1_5        *              1             0             1 
    23 t_1_5                  40.574             0               
    24 s_2_5        *              0             0             1 
    25 t_2_5                 74.8008             0               
    26 t_1_6                       0             0               
    27 t_2_6                 56.6457             0               
    28 t_1_7                  40.574             0               
    29 t_2_7                       0             0               
    30 s_1_8        *              1             0             1 
    31 t_1_8                  77.532             0               
    32 s_2_8        *              0             0             1 
    33 t_2_8                  77.532             0               
    34 u_1_1_2      *              0             0             1 
    35 u_2_1_2      *              1             0             1 
    36 u_1_1_3      *              0             0             1 
    37 u_2_1_3      *              0             0             1 
    38 u_1_1_4      *              0             0             1 
    39 u_2_1_4      *              0             0             1 
    40 u_1_1_5      *              0             0             1 
    41 u_2_1_5      *              1             0             1 
    42 u_1_1_7      *              0             0             1 
    43 u_2_1_7      *              0             0             1 
    44 u_1_2_1      *              1             0             1 
    45 u_2_2_1      *              0             0             1 
    46 u_1_2_3      *              1             0             1 
    47 u_2_2_3      *              0             0             1 
    48 u_1_2_4      *              1             0             1 
    49 u_2_2_4      *              0             0             1 
    50 u_1_2_5      *              0             0             1 
    51 u_2_2_5      *              0             0             1 
    52 u_1_2_6      *              0             0             1 
    53 u_2_2_6      *              0             0             1 
    54 u_1_3_1      *              1             0             1 
    55 u_2_3_1      *              1             0             1 
    56 u_1_3_2      *              0             0             1 
    57 u_2_3_2      *              1             0             1 
    58 u_1_3_5      *              0             0             1 
    59 u_2_3_5      *              1             0             1 
    60 u_1_3_6      *              0             0             1 
    61 u_2_3_6      *              1             0             1 
    62 u_1_4_1      *              1             0             1 
    63 u_2_4_1      *              1             0             1 
    64 u_1_4_2      *              0             0             1 
    65 u_2_4_2      *              1             0             1 
    66 u_1_4_5      *              0             0             1 
    67 u_2_4_5      *              1             0             1 
    68 u_1_4_6      *              0             0             1 
    69 u_2_4_6      *              1             0             1 
    70 u_1_5_1      *              1             0             1 
    71 u_2_5_1      *              0             0             1 
    72 u_1_5_2      *              1             0             1 
    73 u_2_5_2      *              1             0             1 
    74 u_1_5_3      *              1             0             1 
    75 u_2_5_3      *              0             0             1 
    76 u_1_5_4      *              1             0             1 
    77 u_2_5_4      *              0             0             1 
    78 u_1_6_2      *              1             0             1 
    79 u_2_6_2      *              1             0             1 
    80 u_1_6_3      *              1             0             1 
    81 u_2_6_3      *              0             0             1 
    82 u_1_6_4      *              1             0             1 
    83 u_2_6_4      *              0             0             1 
    84 u_1_6_7      *              1             0             1 
    85 u_2_6_7      *              0             0             1 
    86 u_1_7_1      *              1             0             1 
    87 u_2_7_1      *              1             0             1 
    88 u_1_7_6      *              0             0             1 
    89 u_2_7_6      *              1             0             1 

Integer feasibility conditions:

KKT.PE: max.abs.err = 4.55e-13 on row 97
        max.rel.err = 1.10e-16 on row 160
        High quality

KKT.PB: max.abs.err = 3.55e-15 on row 101
        max.rel.err = 1.73e-16 on row 101
        High quality

End of output
